experiment/data/lkh-res/Vrp-Set-X-n308/Vrp-Set-X-n308-lkh/0.lkh1.vrp
NAME : 0
COMMENT : CVRP Instance
TYPE : CVRP
DIMENSION : 308
EDGE_WEIGHT_TYPE : EUC_2D
CAPACITY : 246
NODE_COORD_SECTION
1	0	0
2	70600	13700
3	39200	66200
4	69200	27400
5	94400	37000
6	72600	94500
7	86900	4300
8	62100	77000
9	11200	40200
10	52300	37400
11	61900	17800
12	55300	45700
13	9500	81400
14	69600	13000
15	2700	41700
16	94000	48700
17	94300	96500
18	67000	43500
19	93100	75200
20	30700	77600
21	40400	10100
22	19900	52600
23	11700	31200
24	76200	50500
25	43300	86400
26	86800	15500
27	83200	87000
28	48800	62400
29	68600	78200
30	58500	8900
31	26800	33900
32	24800	34400
33	2200	77600
34	8900	61400
35	7500	27100
36	88200	64600
37	600	65600
38	44900	2700
39	85700	36200
40	80900	77400
41	40300	62600
42	55900	14500
43	66700	94500
44	52400	73700
45	68300	77700
46	64100	79800
47	51400	49500
48	10200	81300
49	51700	59100
50	74800	33000
51	85900	12700
52	69900	4100
53	28100	44200
54	25700	10600
55	11600	9900
56	4100	73200
57	55500	9500
58	37800	100
59	15500	30800
60	94200	95500
61	61900	20500
62	64600	91000
63	79600	79100
64	78500	4900
65	95800	81700
66	42400	24000
67	31100	22600
68	3700	11900
69	76100	86600
70	40400	41700
71	92900	43200
72	74300	53500
73	41800	67900
74	10700	37900
75	32900	86800
76	2200	43200
77	2400	47400
78	38000	8300
79	14500	13500
80	57600	20900
81	87700	85900
82	90100	0
83	46400	47300
84	18100	3500
85	97600	33100
86	67200	61700
87	32400	26400
88	19300	34100
89	52500	78200
90	52700	93500
91	21800	52900
92	4800	32500
93	43100	98900
94	62600	97400
95	59400	43200
96	75700	45000
97	80500	12300
98	95900	26600
99	34800	77600
100	40900	94600
101	45800	24700
102	84100	36100
103	33300	50300
104	67500	30600
105	40700	81100
106	41800	32500
107	85600	19900
108	30000	79200
109	37100	15600
110	16300	23700
111	17200	58900
112	60900	92800
113	27300	1800
114	37900	69400
115	99600	3800
116	400	600
117	73800	1800
118	69300	30700
119	98900	5400
120	46800	58500
121	59400	17200
122	56300	20500
123	27100	78300
124	5800	98700
125	37400	38300
126	77500	53000
127	91300	51200
128	41300	79800
129	81300	94800
130	94300	94100
131	43700	16900
132	24700	37400
133	34700	5100
134	800	11100
135	32100	82500
136	85400	33500
137	61900	27200
138	74200	23200
139	49600	18700
140	60500	6600
141	97300	7500
142	24100	50900
143	84500	10600
144	45100	21700
145	95500	31900
146	43200	66200
147	70400	7300
148	41800	20500
149	81700	75400
150	57000	42900
151	36200	72000
152	11400	71300
153	1100	51600
154	73700	6200
155	56300	31800
156	22200	18700
157	69700	63800
158	34300	83000
159	100	27900
160	300	34200
161	15900	17700
162	38600	88000
163	49300	32100
164	36600	80400
165	65500	30300
166	52400	29700
167	63300	50600
168	52200	32500
169	54100	54700
170	37800	80100
171	8900	32500
172	72400	63100
173	7600	41400
174	51400	27300
175	37800	95800
176	69000	63900
177	21700	17600
178	22200	13500
179	23300	5900
180	24800	87100
181	35600	22300
182	3800	31400
183	11800	3300
184	35900	83500
185	3600	36100
186	34000	71800
187	68200	36100
188	8200	21000
189	29300	80100
190	74400	62700
191	24900	33600
192	23200	79900
193	10200	52600
194	500	26200
195	22100	21600
196	8700	14800
197	66400	36100
198	65600	36600
199	53700	43400
200	69600	62200
201	33000	10500
202	62100	75300
203	40100	92300
204	15900	25300
205	55200	38200
206	36400	79300
207	27100	7200
208	80400	65000
209	1200	28800
210	2900	32200
211	21300	300
212	59800	38800
213	24300	14400
214	27300	19600
215	62300	78100
216	10700	37000
217	51600	27100
218	100	27000
219	43200	76500
220	6200	60800
221	5500	27000
222	84100	46800
223	61600	33400
224	23500	24300
225	22100	77300
226	7900	46100
227	18600	66500
228	16500	87100
229	60800	39100
230	34900	32900
231	22700	13600
232	1700	32900
233	55900	43000
234	73600	64100
235	38700	300
236	1200	32700
237	2000	28300
238	14900	26600
239	76400	65100
240	10000	76800
241	56700	43500
242	11000	27000
243	30400	77000
244	73900	87600
245	6100	31200
246	7100	26000
247	21500	12500
248	25500	20200
249	74700	66700
250	48100	9700
251	19800	16000
252	28900	28700
253	6500	34400
254	23500	15100
255	41300	72400
256	36200	95200
257	10700	11100
258	24500	18200
259	18800	21700
260	30000	73500
261	51700	30400
262	40100	32100
263	800	29900
264	20400	18100
265	73400	56200
266	25900	34400
267	70500	62600
268	78300	70800
269	15900	45000
270	54300	26200
271	37300	4400
272	48300	67800
273	70400	75500
274	3000	41400
275	35300	81800
276	38500	93000
277	68300	18800
278	16300	2700
279	300	37100
280	13800	12000
281	34200	82200
282	57700	48200
283	58300	30000
284	52400	91500
285	34800	90800
286	69500	63600
287	85600	76300
288	800	22700
289	21600	9500
290	800	34200
291	4700	34300
292	25600	2400
293	36500	75300
294	72600	66200
295	2400	31100
296	61400	17300
297	53400	25500
298	35700	82000
299	28400	86900
300	55400	66500
301	20100	90700
302	62900	77600
303	26400	19300
304	33900	34200
305	4700	17600
306	6700	41200
307	20600	82400
308	15400	26700
DEMAND_SECTION
1	0
2	80
3	94
4	87
5	77
6	77
7	50
8	79
9	86
10	75
11	84
12	88
13	94
14	74
15	95
16	89
17	83
18	55
19	77
20	1
21	7
22	3
23	7
24	5
25	2
26	2
27	2
28	5
29	2
30	7
31	1
32	5
33	5
34	8
35	4
36	2
37	8
38	9
39	1
40	10
41	3
42	10
43	3
44	2
45	3
46	2
47	1
48	5
49	4
50	3
51	4
52	3
53	5
54	3
55	5
56	6
57	9
58	6
59	4
60	2
61	7
62	10
63	2
64	3
65	10
66	8
67	10
68	10
69	4
70	4
71	10
72	7
73	4
74	1
75	4
76	9
77	3
78	10
79	4
80	3
81	10
82	10
83	1
84	6
85	3
86	2
87	8
88	8
89	7
90	3
91	7
92	8
93	6
94	1
95	10
96	10
97	9
98	10
99	10
100	6
101	7
102	6
103	10
104	1
105	3
106	2
107	2
108	2
109	3
110	2
111	1
112	7
113	6
114	5
115	8
116	3
117	3
118	4
119	8
120	2
121	9
122	6
123	3
124	6
125	10
126	2
127	8
128	8
129	6
130	6
131	7
132	1
133	8
134	6
135	3
136	4
137	2
138	5
139	10
140	3
141	4
142	10
143	4
144	7
145	5
146	10
147	8
148	6
149	8
150	10
151	7
152	2
153	8
154	8
155	5
156	8
157	2
158	5
159	9
160	9
161	2
162	8
163	3
164	9
165	10
166	6
167	2
168	9
169	3
170	3
171	10
172	4
173	10
174	6
175	6
176	7
177	1
178	8
179	3
180	7
181	10
182	3
183	8
184	9
185	5
186	10
187	6
188	6
189	4
190	3
191	5
192	5
193	10
194	10
195	10
196	2
197	6
198	9
199	8
200	7
201	10
202	8
203	5
204	8
205	2
206	4
207	9
208	9
209	5
210	1
211	6
212	9
213	3
214	5
215	4
216	7
217	5
218	6
219	9
220	4
221	10
222	9
223	9
224	10
225	3
226	3
227	2
228	3
229	8
230	8
231	6
232	2
233	5
234	3
235	8
236	8
237	4
238	6
239	6
240	5
241	10
242	2
243	9
244	6
245	8
246	9
247	6
248	7
249	8
250	8
251	4
252	4
253	1
254	5
255	3
256	6
257	3
258	10
259	10
260	3
261	8
262	5
263	7
264	5
265	10
266	10
267	10
268	5
269	7
270	4
271	10
272	8
273	8
274	4
275	6
276	8
277	7
278	7
279	8
280	2
281	7
282	8
283	6
284	7
285	10
286	3
287	9
288	5
289	2
290	4
291	8
292	5
293	10
294	3
295	3
296	10
297	7
298	2
299	4
300	4
301	5
302	1
303	2
304	1
305	2
306	8
307	8
308	9
DEPOT_SECTION
1
-1
EOF
