experiment/data/lkh-res/Vrp-Set-X-n308/Vrp-Set-X-n308-lkh/0.lkh1.tour
NAME : 0.2618567.tour
COMMENT : Length = 2618567
COMMENT : Found by LKH-3 [Keld Helsgaun] Tue Apr  9 06:06:23 2024
TYPE : TOUR
DIMENSION : 320
TOUR_SECTION
1
116
55
280
79
251
264
156
259
110
204
308
59
9
74
216
171
35
246
305
68
311
238
88
142
91
186
151
114
255
219
128
105
25
162
276
203
100
93
175
256
285
75
135
281
158
184
298
275
164
170
206
293
99
20
243
260
227
111
22
269
23
242
188
320
211
113
58
235
38
140
14
2
30
57
250
271
133
292
278
314
196
191
266
31
125
199
12
282
18
187
197
198
223
155
217
174
144
148
309
134
288
194
218
159
237
209
263
236
232
290
160
279
15
274
185
291
92
245
221
315
252
49
300
273
45
29
46
215
302
8
202
146
73
3
41
103
53
132
316
182
253
306
173
226
193
220
34
152
240
13
48
228
307
192
225
123
108
189
299
180
301
124
33
56
37
153
77
76
210
295
313
289
54
137
104
118
50
136
39
102
222
127
16
71
5
85
145
98
107
277
317
304
70
83
47
169
86
176
157
286
200
267
172
190
234
294
249
239
268
149
40
63
69
244
129
6
43
62
112
94
90
284
89
44
272
28
120
32
318
247
178
231
254
258
303
214
109
131
139
122
80
61
11
296
121
42
21
78
201
207
179
84
183
310
213
297
270
283
165
4
138
97
143
51
26
141
119
115
82
7
64
117
154
147
52
319
177
248
67
181
66
101
166
261
168
212
229
95
150
241
233
205
10
163
106
262
230
87
224
195
161
257
312
96
24
126
36
19
65
130
60
17
81
27
287
208
265
72
167
-1
EOF
